33D32945 STP File, STP Format Version 1.0

SECTION Comment
Name "i640-031-PCST"
Creator "Indaco Biazzo" 
Remark "derived from Incidence graph by Cees Duin"
END

SECTION Graph
Nodes 640
Edges 1280
E 1 165 196.000000
E 1 220 192.000000
E 1 240 199.000000
E 1 288 200.000000
E 1 300 186.000000
E 1 479 203.000000
E 1 526 199.000000
E 1 544 205.000000
E 1 597 199.000000
E 2 86 200.000000
E 2 171 199.000000
E 2 437 200.000000
E 2 603 200.000000
E 3 309 195.000000
E 4 115 203.000000
E 4 231 193.000000
E 4 369 193.000000
E 4 577 201.000000
E 5 41 199.000000
E 5 61 199.000000
E 5 186 212.000000
E 5 195 209.000000
E 5 392 197.000000
E 5 393 204.000000
E 5 574 204.000000
E 5 603 209.000000
E 6 181 201.000000
E 6 272 206.000000
E 6 444 198.000000
E 7 40 194.000000
E 7 126 194.000000
E 7 170 200.000000
E 7 244 213.000000
E 7 581 197.000000
E 8 138 196.000000
E 8 229 205.000000
E 8 352 200.000000
E 8 397 195.000000
E 8 564 202.000000
E 8 582 202.000000
E 9 188 204.000000
E 9 356 196.000000
E 9 570 204.000000
E 10 51 100.000000
E 10 258 92.000000
E 10 289 106.000000
E 10 313 104.000000
E 10 321 98.000000
E 11 80 101.000000
E 11 139 104.000000
E 11 235 107.000000
E 11 268 110.000000
E 11 377 108.000000
E 11 589 97.000000
E 12 233 95.000000
E 12 473 107.000000
E 13 57 98.000000
E 13 84 95.000000
E 13 188 97.000000
E 13 242 103.000000
E 13 434 107.000000
E 14 59 93.000000
E 14 533 100.000000
E 14 610 102.000000
E 15 39 92.000000
E 15 328 95.000000
E 15 330 94.000000
E 15 339 104.000000
E 15 544 94.000000
E 16 67 87.000000
E 16 133 102.000000
E 16 217 102.000000
E 16 409 103.000000
E 16 487 97.000000
E 16 488 103.000000
E 16 551 102.000000
E 16 588 102.000000
E 16 601 101.000000
E 17 25 96.000000
E 17 528 94.000000
E 17 567 104.000000
E 17 613 104.000000
E 18 131 99.000000
E 18 337 92.000000
E 18 356 89.000000
E 18 526 108.000000
E 19 191 100.000000
E 19 207 107.000000
E 19 224 95.000000
E 19 234 96.000000
E 19 337 98.000000
E 19 588 101.000000
E 19 597 100.000000
E 20 96 110.000000
E 20 122 98.000000
E 20 328 90.000000
E 20 457 95.000000
E 20 588 100.000000
E 21 126 97.000000
E 21 420 96.000000
E 21 533 101.000000
E 22 91 110.000000
E 22 207 94.000000
E 22 353 103.000000
E 22 403 97.000000
E 22 599 92.000000
E 23 69 101.000000
E 23 560 105.000000
E 24 86 95.000000
E 24 133 98.000000
E 24 149 104.000000
E 24 270 99.000000
E 24 365 100.000000
E 25 629 107.000000
E 26 177 100.000000
E 26 220 104.000000
E 26 279 99.000000
E 26 387 94.000000
E 26 402 91.000000
E 26 406 98.000000
E 26 536 98.000000
E 27 116 87.000000
E 27 285 95.000000
E 27 307 100.000000
E 27 342 104.000000
E 27 350 97.000000
E 27 380 95.000000
E 27 403 106.000000
E 27 511 95.000000
E 28 112 102.000000
E 28 247 94.000000
E 28 349 104.000000
E 29 99 104.000000
E 29 562 107.000000
E 29 618 102.000000
E 30 124 96.000000
E 30 367 108.000000
E 30 456 92.000000
E 30 471 94.000000
E 30 538 96.000000
E 30 599 101.000000
E 31 392 96.000000
E 31 443 110.000000
E 32 100 103.000000
E 32 111 99.000000
E 32 198 95.000000
E 32 212 100.000000
E 32 283 102.000000
E 33 93 105.000000
E 33 230 94.000000
E 33 315 97.000000
E 33 525 98.000000
E 33 588 94.000000
E 34 153 105.000000
E 34 396 99.000000
E 35 68 98.000000
E 35 384 100.000000
E 35 561 103.000000
E 36 115 91.000000
E 36 445 99.000000
E 37 54 98.000000
E 37 300 95.000000
E 37 451 100.000000
E 37 470 93.000000
E 37 513 98.000000
E 37 514 97.000000
E 38 425 101.000000
E 38 426 107.000000
E 38 431 87.000000
E 38 557 98.000000
E 38 634 104.000000
E 39 586 103.000000
E 39 615 96.000000
E 40 85 97.000000
E 40 316 96.000000
E 40 494 93.000000
E 40 497 95.000000
E 40 519 96.000000
E 40 521 95.000000
E 40 567 98.000000
E 41 94 108.000000
E 41 148 100.000000
E 41 423 103.000000
E 41 621 106.000000
E 42 93 94.000000
E 42 325 102.000000
E 42 397 102.000000
E 42 620 98.000000
E 43 102 102.000000
E 43 117 96.000000
E 43 229 103.000000
E 43 288 94.000000
E 43 332 98.000000
E 43 470 100.000000
E 43 543 93.000000
E 43 552 97.000000
E 44 68 107.000000
E 44 233 99.000000
E 44 271 108.000000
E 44 321 102.000000
E 44 330 99.000000
E 44 604 104.000000
E 44 614 104.000000
E 45 54 93.000000
E 45 69 93.000000
E 45 268 101.000000
E 45 276 98.000000
E 45 327 97.000000
E 45 542 99.000000
E 46 98 93.000000
E 46 476 83.000000
E 46 498 98.000000
E 47 531 106.000000
E 47 595 101.000000
E 48 200 108.000000
E 48 483 95.000000
E 48 491 99.000000
E 48 544 108.000000
E 49 606 100.000000
E 50 279 101.000000
E 50 465 90.000000
E 50 538 104.000000
E 50 605 104.000000
E 51 185 98.000000
E 51 248 104.000000
E 51 323 98.000000
E 51 586 96.000000
E 52 208 90.000000
E 52 213 95.000000
E 53 72 103.000000
E 53 95 97.000000
E 53 263 94.000000
E 53 385 101.000000
E 54 233 100.000000
E 54 243 97.000000
E 54 265 99.000000
E 55 106 100.000000
E 55 381 101.000000
E 55 382 100.000000
E 56 369 95.000000
E 56 540 102.000000
E 56 561 99.000000
E 57 147 96.000000
E 58 160 100.000000
E 58 332 98.000000
E 59 110 100.000000
E 59 290 97.000000
E 59 304 103.000000
E 59 443 94.000000
E 59 456 97.000000
E 59 462 98.000000
E 60 274 96.000000
E 60 275 104.000000
E 60 436 101.000000
E 61 80 108.000000
E 61 382 91.000000
E 61 556 100.000000
E 62 243 101.000000
E 62 286 103.000000
E 62 287 109.000000
E 62 589 97.000000
E 63 217 100.000000
E 63 334 97.000000
E 63 523 101.000000
E 64 115 102.000000
E 64 261 106.000000
E 64 431 100.000000
E 64 546 103.000000
E 65 101 101.000000
E 65 236 96.000000
E 65 599 97.000000
E 66 146 105.000000
E 66 233 95.000000
E 66 345 96.000000
E 66 512 102.000000
E 67 209 100.000000
E 67 224 100.000000
E 67 408 94.000000
E 67 432 98.000000
E 68 590 100.000000
E 68 593 96.000000
E 69 472 95.000000
E 69 480 100.000000
E 70 197 100.000000
E 70 250 101.000000
E 70 283 100.000000
E 70 492 95.000000
E 70 511 92.000000
E 70 517 105.000000
E 70 611 102.000000
E 71 489 95.000000
E 71 537 98.000000
E 72 234 101.000000
E 72 531 92.000000
E 73 123 103.000000
E 73 469 94.000000
E 74 351 94.000000
E 74 422 96.000000
E 74 453 97.000000
E 74 565 98.000000
E 74 628 97.000000
E 75 130 99.000000
E 75 323 98.000000
E 75 463 102.000000
E 75 631 97.000000
E 76 261 104.000000
E 76 264 91.000000
E 76 371 99.000000
E 76 383 95.000000
E 77 78 109.000000
E 77 283 96.000000
E 77 410 98.000000
E 77 421 107.000000
E 77 424 90.000000
E 77 639 92.000000
E 78 414 108.000000
E 78 629 99.000000
E 79 160 107.000000
E 79 362 101.000000
E 79 449 100.000000
E 79 576 95.000000
E 80 98 98.000000
E 81 89 100.000000
E 81 300 105.000000
E 81 318 98.000000
E 82 420 105.000000
E 82 575 104.000000
E 83 180 91.000000
E 83 395 96.000000
E 83 433 102.000000
E 84 98 101.000000
E 84 186 95.000000
E 84 632 99.000000
E 85 300 99.000000
E 85 329 98.000000
E 85 374 99.000000
E 85 486 97.000000
E 85 572 100.000000
E 85 593 96.000000
E 86 120 89.000000
E 86 128 101.000000
E 86 282 94.000000
E 86 370 94.000000
E 86 371 97.000000
E 86 399 97.000000
E 86 502 90.000000
E 86 539 96.000000
E 87 390 93.000000
E 87 410 95.000000
E 87 412 96.000000
E 88 208 92.000000
E 88 218 103.000000
E 88 311 91.000000
E 88 414 107.000000
E 89 115 102.000000
E 89 533 107.000000
E 89 625 97.000000
E 90 117 102.000000
E 90 132 95.000000
E 90 139 96.000000
E 90 147 105.000000
E 90 217 93.000000
E 90 378 101.000000
E 90 464 98.000000
E 91 269 98.000000
E 92 102 107.000000
E 92 320 98.000000
E 92 424 91.000000
E 93 123 100.000000
E 93 216 98.000000
E 93 285 99.000000
E 94 524 101.000000
E 95 299 101.000000
E 95 317 102.000000
E 95 463 110.000000
E 96 126 107.000000
E 96 537 104.000000
E 96 633 100.000000
E 97 305 103.000000
E 97 506 108.000000
E 98 287 101.000000
E 98 305 95.000000
E 98 482 85.000000
E 98 541 97.000000
E 99 388 97.000000
E 99 509 108.000000
E 100 328 94.000000
E 100 461 104.000000
E 100 527 101.000000
E 100 532 102.000000
E 100 554 100.000000
E 101 211 98.000000
E 101 393 105.000000
E 101 607 106.000000
E 102 161 104.000000
E 102 353 100.000000
E 103 184 99.000000
E 103 390 98.000000
E 103 531 100.000000
E 104 111 103.000000
E 104 303 99.000000
E 104 479 107.000000
E 104 545 92.000000
E 105 214 104.000000
E 105 243 96.000000
E 105 505 101.000000
E 106 119 104.000000
E 106 144 92.000000
E 107 355 100.000000
E 107 585 104.000000
E 108 348 102.000000
E 108 492 99.000000
E 108 578 107.000000
E 109 189 100.000000
E 109 368 103.000000
E 110 273 100.000000
E 111 302 96.000000
E 111 456 96.000000
E 112 120 103.000000
E 112 160 103.000000
E 112 217 104.000000
E 112 322 103.000000
E 112 515 98.000000
E 112 606 97.000000
E 112 639 91.000000
E 113 164 99.000000
E 113 569 100.000000
E 113 596 98.000000
E 114 115 96.000000
E 114 210 92.000000
E 114 249 98.000000
E 114 260 107.000000
E 114 324 95.000000
E 114 410 100.000000
E 114 484 101.000000
E 115 129 104.000000
E 115 382 93.000000
E 115 443 108.000000
E 115 517 98.000000
E 116 532 94.000000
E 117 302 109.000000
E 118 130 102.000000
E 118 135 98.000000
E 118 354 99.000000
E 118 598 99.000000
E 119 131 88.000000
E 119 196 104.000000
E 119 356 97.000000
E 119 512 93.000000
E 119 526 110.000000
E 120 151 104.000000
E 120 287 103.000000
E 120 456 102.000000
E 120 580 96.000000
E 120 588 108.000000
E 121 280 100.000000
E 121 614 100.000000
E 122 223 100.000000
E 122 287 95.000000
E 122 390 100.000000
E 122 500 93.000000
E 123 173 100.000000
E 123 271 101.000000
E 123 354 98.000000
E 124 258 104.000000
E 124 370 100.000000
E 124 599 97.000000
E 125 279 100.000000
E 126 152 103.000000
E 126 371 93.000000
E 126 507 104.000000
E 127 412 100.000000
E 127 499 103.000000
E 128 216 95.000000
E 128 243 89.000000
E 128 468 103.000000
E 128 576 98.000000
E 128 598 100.000000
E 129 228 105.000000
E 129 281 97.000000
E 129 319 102.000000
E 129 511 104.000000
E 129 529 98.000000
E 129 615 97.000000
E 130 276 101.000000
E 130 613 98.000000
E 130 633 99.000000
E 131 611 96.000000
E 132 199 96.000000
E 132 354 104.000000
E 133 143 101.000000
E 133 345 97.000000
E 133 582 96.000000
E 133 589 90.000000
E 134 150 100.000000
E 134 185 102.000000
E 135 365 104.000000
E 135 387 109.000000
E 135 403 102.000000
E 135 490 106.000000
E 135 538 98.000000
E 135 563 106.000000
E 136 246 105.000000
E 136 532 99.000000
E 137 185 101.000000
E 137 314 97.000000
E 137 566 106.000000
E 137 580 101.000000
E 138 168 103.000000
E 138 243 104.000000
E 138 306 93.000000
E 138 326 95.000000
E 138 368 95.000000
E 138 416 99.000000
E 138 439 90.000000
E 138 532 101.000000
E 139 430 94.000000
E 139 607 94.000000
E 140 263 92.000000
E 140 584 93.000000
E 141 145 105.000000
E 141 308 89.000000
E 141 330 98.000000
E 141 573 92.000000
E 142 237 108.000000
E 142 312 105.000000
E 142 554 104.000000
E 144 209 106.000000
E 144 230 97.000000
E 144 334 94.000000
E 144 507 101.000000
E 145 305 96.000000
E 145 467 106.000000
E 145 632 97.000000
E 147 150 102.000000
E 147 231 102.000000
E 147 266 97.000000
E 147 446 98.000000
E 148 272 103.000000
E 148 383 100.000000
E 148 386 102.000000
E 148 390 100.000000
E 149 159 101.000000
E 149 207 95.000000
E 149 254 104.000000
E 149 414 96.000000
E 149 557 95.000000
E 150 373 108.000000
E 150 398 109.000000
E 151 507 108.000000
E 151 638 106.000000
E 152 487 96.000000
E 153 299 98.000000
E 153 326 104.000000
E 154 287 97.000000
E 154 333 104.000000
E 154 582 99.000000
E 154 612 103.000000
E 155 189 99.000000
E 155 438 94.000000
E 155 479 83.000000
E 155 530 96.000000
E 156 174 100.000000
E 156 578 105.000000
E 156 588 95.000000
E 156 636 101.000000
E 157 444 92.000000
E 157 595 107.000000
E 158 205 97.000000
E 158 250 102.000000
E 158 417 109.000000
E 158 507 86.000000
E 158 532 92.000000
E 159 468 103.000000
E 160 430 98.000000
E 160 487 99.000000
E 160 497 101.000000
E 161 207 104.000000
E 161 264 105.000000
E 162 221 102.000000
E 162 366 96.000000
E 163 191 93.000000
E 163 242 104.000000
E 164 235 103.000000
E 164 320 102.000000
E 164 380 96.000000
E 164 427 100.000000
E 165 346 89.000000
E 166 335 96.000000
E 166 590 105.000000
E 167 217 95.000000
E 167 529 93.000000
E 168 221 94.000000
E 168 455 94.000000
E 168 589 107.000000
E 168 602 92.000000
E 169 509 103.000000
E 170 396 101.000000
E 171 237 105.000000
E 172 244 98.000000
E 172 247 100.000000
E 172 464 98.000000
E 174 605 90.000000
E 175 262 101.000000
E 175 295 106.000000
E 175 489 105.000000
E 175 586 99.000000
E 176 278 95.000000
E 176 518 101.000000
E 176 535 105.000000
E 177 219 95.000000
E 177 399 102.000000
E 178 293 94.000000
E 178 501 101.000000
E 178 506 97.000000
E 179 606 85.000000
E 179 639 109.000000
E 180 267 101.000000
E 180 279 100.000000
E 180 364 104.000000
E 180 375 104.000000
E 180 622 94.000000
E 181 357 102.000000
E 182 287 108.000000
E 182 343 94.000000
E 182 594 86.000000
E 182 623 106.000000
E 183 341 105.000000
E 183 425 97.000000
E 183 547 98.000000
E 183 572 100.000000
E 184 391 97.000000
E 184 591 94.000000
E 184 626 99.000000
E 185 250 98.000000
E 185 347 113.000000
E 185 396 106.000000
E 185 474 92.000000
E 185 633 91.000000
E 186 193 95.000000
E 186 368 99.000000
E 186 539 97.000000
E 187 222 97.000000
E 187 391 93.000000
E 188 328 100.000000
E 188 434 106.000000
E 189 320 99.000000
E 189 482 95.000000
E 189 490 100.000000
E 189 570 91.000000
E 189 591 100.000000
E 189 599 92.000000
E 190 312 100.000000
E 190 326 94.000000
E 190 359 101.000000
E 191 234 97.000000
E 191 343 97.000000
E 191 470 105.000000
E 191 492 93.000000
E 192 304 100.000000
E 192 623 101.000000
E 193 195 110.000000
E 193 479 102.000000
E 194 255 94.000000
E 194 327 92.000000
E 194 335 95.000000
E 194 476 101.000000
E 195 339 101.000000
E 195 373 102.000000
E 195 439 101.000000
E 195 445 102.000000
E 195 606 101.000000
E 196 404 97.000000
E 196 566 99.000000
E 197 326 102.000000
E 197 355 110.000000
E 197 472 107.000000
E 197 508 96.000000
E 197 607 107.000000
E 197 626 98.000000
E 198 404 102.000000
E 198 489 90.000000
E 198 496 103.000000
E 198 530 104.000000
E 199 288 104.000000
E 199 318 98.000000
E 199 322 98.000000
E 199 545 107.000000
E 201 393 94.000000
E 201 435 101.000000
E 201 493 101.000000
E 201 518 104.000000
E 202 242 99.000000
E 203 226 96.000000
E 203 235 104.000000
E 203 309 98.000000
E 203 377 89.000000
E 203 492 98.000000
E 204 371 111.000000
E 204 423 95.000000
E 204 575 114.000000
E 204 583 101.000000
E 205 230 98.000000
E 206 367 98.000000
E 207 280 97.000000
E 207 350 107.000000
E 207 539 104.000000
E 208 316 98.000000
E 209 235 92.000000
E 209 539 97.000000
E 209 585 99.000000
E 210 373 99.000000
E 210 511 93.000000
E 210 608 96.000000
E 210 629 97.000000
E 211 558 107.000000
E 212 401 97.000000
E 212 448 106.000000
E 212 626 102.000000
E 213 592 102.000000
E 214 552 104.000000
E 214 589 96.000000
E 215 418 91.000000
E 215 506 101.000000
E 215 626 104.000000
E 216 270 104.000000
E 216 365 95.000000
E 216 470 104.000000
E 217 293 101.000000
E 217 295 97.000000
E 217 629 95.000000
E 217 638 101.000000
E 218 275 97.000000
E 218 370 109.000000
E 218 387 99.000000
E 218 406 100.000000
E 218 427 105.000000
E 218 455 97.000000
E 218 626 94.000000
E 219 227 97.000000
E 219 340 95.000000
E 221 611 102.000000
E 222 438 94.000000
E 222 472 110.000000
E 223 289 104.000000
E 223 327 95.000000
E 223 341 103.000000
E 224 566 99.000000
E 224 620 95.000000
E 225 360 101.000000
E 225 550 107.000000
E 225 591 96.000000
E 226 240 100.000000
E 227 394 96.000000
E 227 484 97.000000
E 227 586 94.000000
E 228 230 92.000000
E 228 310 96.000000
E 228 569 99.000000
E 229 242 95.000000
E 229 401 97.000000
E 229 461 104.000000
E 229 468 107.000000
E 229 534 98.000000
E 229 598 99.000000
E 231 235 105.000000
E 231 331 108.000000
E 231 349 105.000000
E 231 460 103.000000
E 231 625 93.000000
E 232 268 95.000000
E 232 304 94.000000
E 232 400 94.000000
E 232 562 106.000000
E 233 551 107.000000
E 233 569 107.000000
E 233 622 96.000000
E 234 620 105.000000
E 234 627 92.000000
E 235 259 101.000000
E 235 389 103.000000
E 235 455 92.000000
E 235 491 96.000000
E 235 517 100.000000
E 235 522 101.000000
E 235 544 101.000000
E 236 535 94.000000
E 236 536 93.000000
E 237 431 100.000000
E 238 321 101.000000
E 239 306 89.000000
E 239 401 99.000000
E 239 466 97.000000
E 239 639 96.000000
E 240 561 90.000000
E 240 622 93.000000
E 241 317 97.000000
E 241 468 108.000000
E 241 555 105.000000
E 242 348 103.000000
E 242 461 92.000000
E 242 549 100.000000
E 242 634 94.000000
E 243 258 96.000000
E 243 284 105.000000
E 243 306 97.000000
E 243 407 95.000000
E 244 319 102.000000
E 244 376 94.000000
E 244 395 93.000000
E 244 496 107.000000
E 245 522 101.000000
E 246 305 96.000000
E 246 463 99.000000
E 248 292 99.000000
E 248 405 99.000000
E 248 473 91.000000
E 249 392 107.000000
E 249 627 105.000000
E 250 277 103.000000
E 250 375 103.000000
E 250 437 100.000000
E 251 261 98.000000
E 251 263 98.000000
E 251 311 103.000000
E 251 346 92.000000
E 251 379 109.000000
E 251 437 109.000000
E 251 600 102.000000
E 251 616 100.000000
E 252 353 89.000000
E 252 432 87.000000
E 252 455 90.000000
E 252 457 93.000000
E 253 286 96.000000
E 253 555 101.000000
E 254 492 98.000000
E 256 418 93.000000
E 256 456 102.000000
E 257 263 89.000000
E 257 293 95.000000
E 257 386 107.000000
E 258 287 97.000000
E 258 329 98.000000
E 258 630 101.000000
E 259 365 101.000000
E 259 390 91.000000
E 259 489 103.000000
E 259 553 101.000000
E 259 575 103.000000
E 260 342 108.000000
E 260 475 93.000000
E 261 470 107.000000
E 262 411 101.000000
E 262 485 98.000000
E 262 492 103.000000
E 263 617 97.000000
E 264 405 98.000000
E 265 270 101.000000
E 265 431 96.000000
E 265 579 105.000000
E 265 595 106.000000
E 267 281 99.000000
E 267 287 90.000000
E 269 593 104.000000
E 271 275 90.000000
E 272 561 97.000000
E 273 434 109.000000
E 273 443 112.000000
E 274 369 101.000000
E 274 383 105.000000
E 275 336 88.000000
E 276 377 100.000000
E 276 549 99.000000
E 277 384 104.000000
E 277 431 106.000000
E 277 495 95.000000
E 277 542 101.000000
E 277 563 106.000000
E 277 614 104.000000
E 278 282 101.000000
E 279 479 92.000000
E 279 513 96.000000
E 280 341 99.000000
E 280 433 96.000000
E 281 603 94.000000
E 281 622 102.000000
E 282 314 108.000000
E 282 454 99.000000
E 282 503 91.000000
E 282 564 94.000000
E 282 573 104.000000
E 283 605 97.000000
E 283 610 103.000000
E 284 322 101.000000
E 284 335 95.000000
E 284 606 101.000000
E 286 475 96.000000
E 286 531 102.000000
E 287 493 102.000000
E 287 539 100.000000
E 287 590 99.000000
E 288 434 99.000000
E 288 559 107.000000
E 288 629 97.000000
E 289 514 106.000000
E 289 541 97.000000
E 290 323 105.000000
E 290 455 93.000000
E 291 537 105.000000
E 292 459 102.000000
E 292 475 89.000000
E 293 448 95.000000
E 293 516 100.000000
E 293 537 99.000000
E 294 445 103.000000
E 294 449 94.000000
E 295 479 100.000000
E 295 637 98.000000
E 296 419 107.000000
E 296 562 100.000000
E 297 495 101.000000
E 297 587 95.000000
E 298 381 91.000000
E 298 391 104.000000
E 298 628 104.000000
E 299 362 94.000000
E 299 545 96.000000
E 300 522 102.000000
E 301 381 92.000000
E 301 400 110.000000
E 303 450 91.000000
E 303 460 97.000000
E 303 474 96.000000
E 303 482 102.000000
E 303 490 94.000000
E 304 540 101.000000
E 306 433 104.000000
E 306 579 97.000000
E 307 328 105.000000
E 307 399 101.000000
E 307 638 99.000000
E 308 622 99.000000
E 310 490 99.000000
E 310 546 99.000000
E 311 583 102.000000
E 312 322 90.000000
E 312 338 95.000000
E 312 472 94.000000
E 312 538 108.000000
E 313 377 102.000000
E 313 434 95.000000
E 313 521 99.000000
E 313 633 95.000000
E 314 396 95.000000
E 314 482 99.000000
E 315 417 97.000000
E 315 476 99.000000
E 316 339 102.000000
E 316 452 105.000000
E 316 545 101.000000
E 317 410 111.000000
E 317 499 97.000000
E 317 551 97.000000
E 318 486 104.000000
E 318 613 87.000000
E 319 354 102.000000
E 319 394 100.000000
E 319 473 95.000000
E 319 532 97.000000
E 319 597 99.000000
E 322 354 96.000000
E 322 465 94.000000
E 323 461 94.000000
E 325 385 94.000000
E 325 615 100.000000
E 326 453 110.000000
E 326 561 101.000000
E 327 552 103.000000
E 327 581 97.000000
E 328 614 100.000000
E 329 358 102.000000
E 329 434 107.000000
E 330 372 98.000000
E 330 591 103.000000
E 331 458 94.000000
E 332 581 111.000000
E 333 589 105.000000
E 334 415 99.000000
E 334 471 100.000000
E 336 479 96.000000
E 336 560 99.000000
E 337 477 102.000000
E 337 524 91.000000
E 338 594 101.000000
E 338 628 96.000000
E 339 610 93.000000
E 340 359 96.000000
E 340 394 103.000000
E 340 440 101.000000
E 340 598 89.000000
E 341 389 98.000000
E 341 563 95.000000
E 342 400 99.000000
E 342 466 90.000000
E 342 594 101.000000
E 343 558 90.000000
E 343 575 94.000000
E 344 477 97.000000
E 344 562 105.000000
E 345 581 99.000000
E 346 499 105.000000
E 346 593 104.000000
E 347 409 101.000000
E 347 428 95.000000
E 347 458 97.000000
E 347 587 105.000000
E 347 615 98.000000
E 348 579 94.000000
E 348 598 94.000000
E 349 542 103.000000
E 349 629 94.000000
E 350 405 100.000000
E 350 430 100.000000
E 350 537 104.000000
E 351 531 102.000000
E 351 629 102.000000
E 352 493 91.000000
E 352 502 100.000000
E 352 561 101.000000
E 353 410 97.000000
E 355 489 96.000000
E 355 577 97.000000
E 356 466 108.000000
E 356 631 95.000000
E 357 359 111.000000
E 357 541 94.000000
E 357 606 100.000000
E 358 411 105.000000
E 358 483 101.000000
E 358 592 97.000000
E 358 626 98.000000
E 359 367 101.000000
E 360 618 103.000000
E 361 365 104.000000
E 361 561 91.000000
E 362 527 97.000000
E 363 491 96.000000
E 363 519 98.000000
E 363 573 106.000000
E 363 632 95.000000
E 364 546 103.000000
E 365 388 102.000000
E 365 473 105.000000
E 366 447 109.000000
E 366 571 107.000000
E 367 458 103.000000
E 368 570 109.000000
E 369 384 92.000000
E 369 489 98.000000
E 370 557 104.000000
E 371 463 95.000000
E 371 496 108.000000
E 372 430 91.000000
E 373 414 97.000000
E 373 555 102.000000
E 373 602 98.000000
E 374 386 101.000000
E 374 434 106.000000
E 374 441 93.000000
E 374 565 105.000000
E 375 615 97.000000
E 376 561 99.000000
E 377 442 98.000000
E 380 547 96.000000
E 381 472 100.000000
E 381 547 98.000000
E 381 616 98.000000
E 382 389 102.000000
E 382 454 97.000000
E 382 528 92.000000
E 382 542 96.000000
E 383 422 101.000000
E 383 639 94.000000
E 385 634 94.000000
E 386 416 104.000000
E 386 444 100.000000
E 386 631 102.000000
E 387 390 106.000000
E 388 585 101.000000
E 389 640 94.000000
E 390 569 91.000000
E 390 615 95.000000
E 391 466 113.000000
E 391 617 95.000000
E 392 477 110.000000
E 392 488 100.000000
E 392 541 101.000000
E 393 472 103.000000
E 393 584 92.000000
E 394 466 99.000000
E 394 483 103.000000
E 394 600 99.000000
E 397 474 98.000000
E 397 480 98.000000
E 398 499 93.000000
E 398 621 94.000000
E 399 510 103.000000
E 399 582 95.000000
E 400 415 102.000000
E 400 610 97.000000
E 400 613 101.000000
E 401 448 105.000000
E 401 459 98.000000
E 401 504 105.000000
E 401 508 100.000000
E 402 442 87.000000
E 404 502 102.000000
E 405 541 100.000000
E 407 440 95.000000
E 407 517 101.000000
E 408 609 97.000000
E 408 630 96.000000
E 410 481 96.000000
E 411 491 96.000000
E 412 548 102.000000
E 412 604 102.000000
E 413 593 93.000000
E 414 626 100.000000
E 415 508 101.000000
E 416 438 108.000000
E 416 445 100.000000
E 416 455 99.000000
E 416 468 101.000000
E 418 476 109.000000
E 419 609 101.000000
E 421 559 89.000000
E 422 512 89.000000
E 423 594 99.000000
E 424 463 95.000000
E 425 538 97.000000
E 426 481 105.000000
E 426 496 95.000000
E 427 628 95.000000
E 429 615 91.000000
E 429 635 101.000000
E 430 434 95.000000
E 430 483 96.000000
E 431 445 92.000000
E 431 493 93.000000
E 431 601 99.000000
E 431 628 94.000000
E 432 453 100.000000
E 432 556 94.000000
E 432 607 98.000000
E 434 470 101.000000
E 434 495 99.000000
E 434 525 98.000000
E 435 580 101.000000
E 436 588 105.000000
E 438 523 101.000000
E 440 528 101.000000
E 441 541 109.000000
E 441 577 103.000000
E 443 458 102.000000
E 444 594 105.000000
E 444 635 98.000000
E 446 628 103.000000
E 447 480 101.000000
E 447 482 95.000000
E 448 509 98.000000
E 448 602 102.000000
E 449 588 97.000000
E 451 525 98.000000
E 451 592 103.000000
E 454 562 105.000000
E 455 505 98.000000
E 455 577 98.000000
E 455 617 89.000000
E 456 610 94.000000
E 457 546 98.000000
E 459 616 103.000000
E 460 466 104.000000
E 461 576 101.000000
E 461 611 103.000000
E 463 536 106.000000
E 463 630 109.000000
E 466 561 101.000000
E 468 478 94.000000
E 468 597 103.000000
E 470 514 109.000000
E 475 483 99.000000
E 475 495 97.000000
E 475 618 95.000000
E 476 498 107.000000
E 478 532 101.000000
E 479 533 92.000000
E 479 622 96.000000
E 480 485 103.000000
E 480 539 93.000000
E 480 620 103.000000
E 481 534 99.000000
E 482 585 95.000000
E 483 619 102.000000
E 484 573 99.000000
E 484 590 97.000000
E 484 608 103.000000
E 485 518 109.000000
E 485 548 94.000000
E 485 585 94.000000
E 485 636 101.000000
E 486 618 97.000000
E 486 638 107.000000
E 487 527 105.000000
E 491 614 100.000000
E 492 534 99.000000
E 493 499 101.000000
E 493 585 99.000000
E 495 572 92.000000
E 496 522 91.000000
E 497 581 101.000000
E 499 618 104.000000
E 505 511 110.000000
E 505 518 95.000000
E 506 568 99.000000
E 506 611 103.000000
E 507 545 103.000000
E 509 535 99.000000
E 511 556 98.000000
E 512 605 113.000000
E 515 518 100.000000
E 515 599 103.000000
E 517 579 98.000000
E 518 628 110.000000
E 520 544 106.000000
E 522 634 94.000000
E 523 558 100.000000
E 523 628 107.000000
E 525 561 98.000000
E 525 598 96.000000
E 525 639 103.000000
E 526 571 88.000000
E 530 535 107.000000
E 530 632 95.000000
E 532 586 99.000000
E 534 570 92.000000
E 534 586 98.000000
E 536 624 102.000000
E 537 575 101.000000
E 540 544 98.000000
E 542 561 100.000000
E 542 596 103.000000
E 542 625 106.000000
E 544 618 90.000000
E 546 614 100.000000
E 547 609 91.000000
E 548 640 93.000000
E 550 626 105.000000
E 551 554 98.000000
E 555 562 101.000000
E 556 622 101.000000
E 557 633 99.000000
E 558 578 89.000000
E 559 633 97.000000
E 562 616 98.000000
E 562 634 104.000000
E 568 617 101.000000
E 572 574 96.000000
E 573 632 93.000000
E 577 590 103.000000
E 584 588 100.000000
E 586 626 105.000000
E 588 622 101.000000
E 600 602 96.000000
E 602 612 94.000000
E 602 633 93.000000
E 606 614 95.000000
E 607 623 101.000000
E 613 624 96.000000
E 633 636 93.000000
END

SECTION Terminals
Terminals 9
TP 1 240.000000
TP 2 256.000000
TP 3 812.000000
TP 4 92.000000
TP 5 652.000000
TP 6 544.000000
TP 7 220.000000
TP 8 580.000000
TP 9 48.000000
END

EOF
